c Grafo no formato DIMACS 
p edge 70 223 
e 1 60 
e 1 45 
e 1 40 
e 1 31 
e 1 30 
e 1 5 
e 2 53 
e 2 52 
e 2 31 
e 2 30 
e 2 8 
e 3 70 
e 3 65 
e 3 63 
e 3 51 
e 3 30 
e 3 25 
e 3 11 
e 3 5 
e 4 60 
e 4 44 
e 4 15 
e 4 8 
e 5 70 
e 5 65 
e 5 62 
e 5 34 
e 5 8 
e 6 35 
e 6 33 
e 6 30 
e 6 19 
e 6 18 
e 7 65 
e 7 42 
e 7 17 
e 7 9 
e 8 66 
e 8 65 
e 8 35 
e 8 30 
e 8 16 
e 8 10 
e 9 70 
e 9 68 
e 9 64 
e 9 50 
e 9 43 
e 9 20 
e 9 19 
e 9 13 
e 10 39 
e 10 35 
e 10 32 
e 10 17 
e 11 66 
e 11 59 
e 11 51 
e 11 48 
e 11 47 
e 11 37 
e 11 22 
e 11 14 
e 12 65 
e 12 33 
e 12 26 
e 12 14 
e 13 60 
e 13 58 
e 13 42 
e 13 23 
e 14 58 
e 14 57 
e 14 28 
e 15 67 
e 15 64 
e 15 54 
e 15 52 
e 15 50 
e 15 30 
e 15 25 
e 16 70 
e 16 58 
e 16 56 
e 16 52 
e 16 48 
e 16 47 
e 16 31 
e 17 44 
e 17 35 
e 17 32 
e 17 31 
e 17 27 
e 17 22 
e 17 20 
e 18 67 
e 18 47 
e 18 42 
e 18 38 
e 18 31 
e 18 28 
e 18 27 
e 18 23 
e 19 65 
e 19 39 
e 19 36 
e 19 28 
e 19 21 
e 20 65 
e 20 60 
e 20 58 
e 20 33 
e 20 25 
e 21 70 
e 21 65 
e 21 61 
e 21 38 
e 21 27 
e 22 68 
e 22 48 
e 22 33 
e 22 32 
e 23 60 
e 23 44 
e 23 43 
e 24 69 
e 24 68 
e 24 59 
e 24 45 
e 24 32 
e 24 29 
e 24 27 
e 24 25 
e 25 56 
e 25 52 
e 25 48 
e 25 45 
e 25 42 
e 25 38 
e 25 30 
e 25 26 
e 26 45 
e 26 43 
e 27 63 
e 27 36 
e 28 67 
e 28 62 
e 28 61 
e 29 62 
e 30 68 
e 30 62 
e 30 60 
e 30 45 
e 31 61 
e 31 59 
e 31 56 
e 31 55 
e 31 44 
e 31 42 
e 32 58 
e 32 47 
e 33 52 
e 33 46 
e 33 43 
e 33 41 
e 34 44 
e 35 68 
e 35 42 
e 35 41 
e 36 67 
e 36 55 
e 36 40 
e 37 59 
e 37 58 
e 37 54 
e 37 42 
e 38 69 
e 38 64 
e 38 50 
e 38 49 
e 39 67 
e 39 61 
e 39 51 
e 40 68 
e 40 47 
e 41 70 
e 41 44 
e 43 47 
e 44 67 
e 44 63 
e 44 62 
e 44 49 
e 45 53 
e 46 50 
e 47 66 
e 47 60 
e 47 57 
e 48 66 
e 48 51 
e 49 58 
e 49 55 
e 51 62 
e 52 68 
e 52 59 
e 54 57 
e 55 66 
e 55 56 
e 56 64 
e 57 63 
e 57 58 
e 58 66 
e 59 64 
e 59 61 
e 60 70 
e 60 68 
e 60 63 
e 61 70 
e 61 67 
e 61 66 
e 61 63 
e 62 63 
e 65 69 
e 66 69 
